(set-option :produce-models true)
(set-logic QF_UF)
(declare-fun p109() Bool)
(declare-fun p10() Bool)
(declare-fun p116() Bool)
(declare-fun p104() Bool)
(declare-fun p15() Bool)
(declare-fun p97() Bool)
(declare-fun p98() Bool)
(declare-fun p0() Bool)
(declare-fun p12() Bool)
(declare-fun p74() Bool)
(declare-fun p13() Bool)
(declare-fun p27() Bool)
(declare-fun p55() Bool)
(declare-fun p105() Bool)
(declare-fun p49() Bool)
(declare-fun p95() Bool)
(declare-fun p90() Bool)
(declare-fun p25() Bool)
(declare-fun p112() Bool)
(declare-fun p28() Bool)
(declare-fun p88() Bool)
(declare-fun p113() Bool)
(declare-fun p94() Bool)
(declare-fun p4() Bool)
(declare-fun p102() Bool)
(declare-fun p19() Bool)
(declare-fun p89() Bool)
(declare-fun p67() Bool)
(declare-fun p118() Bool)
(declare-fun p96() Bool)
(declare-fun p37() Bool)
(declare-fun p40() Bool)
(declare-fun p39() Bool)
(declare-fun p63() Bool)
(declare-fun p75() Bool)
(declare-fun p22() Bool)
(declare-fun p106() Bool)
(declare-fun p31() Bool)
(declare-fun p44() Bool)
(declare-fun p3() Bool)
(declare-fun p35() Bool)
(declare-fun p14() Bool)
(declare-fun p115() Bool)
(declare-fun p119() Bool)
(declare-fun p64() Bool)
(declare-fun p5() Bool)
(declare-fun p58() Bool)
(declare-fun p70() Bool)
(declare-fun p83() Bool)
(declare-fun p66() Bool)
(declare-fun p65() Bool)
(declare-fun p101() Bool)
(declare-fun p79() Bool)
(declare-fun p57() Bool)
(declare-fun p33() Bool)
(declare-fun p18() Bool)
(declare-fun p48() Bool)
(declare-fun p56() Bool)
(declare-fun p54() Bool)
(declare-fun p76() Bool)
(declare-fun p17() Bool)
(declare-fun p81() Bool)
(declare-fun p62() Bool)
(declare-fun p30() Bool)
(declare-fun p111() Bool)
(declare-fun p61() Bool)
(declare-fun p26() Bool)
(declare-fun p36() Bool)
(declare-fun p100() Bool)
(declare-fun p46() Bool)
(declare-fun p45() Bool)
(declare-fun p108() Bool)
(declare-fun p6() Bool)
(declare-fun p92() Bool)
(declare-fun p69() Bool)
(declare-fun p78() Bool)
(declare-fun p84() Bool)
(declare-fun p2() Bool)
(declare-fun p23() Bool)
(declare-fun p68() Bool)
(declare-fun p85() Bool)
(declare-fun p91() Bool)
(declare-fun p107() Bool)
(declare-fun p43() Bool)
(declare-fun p20() Bool)
(declare-fun p8() Bool)
(declare-fun p21() Bool)
(declare-fun p60() Bool)
(declare-fun p50() Bool)
(declare-fun p59() Bool)
(declare-fun p53() Bool)
(declare-fun p47() Bool)
(declare-fun p117() Bool)
(declare-fun p38() Bool)
(declare-fun p32() Bool)
(declare-fun p110() Bool)
(declare-fun p51() Bool)
(declare-fun p24() Bool)
(declare-fun p16() Bool)
(declare-fun p103() Bool)
(declare-fun p93() Bool)
(declare-fun p82() Bool)
(declare-fun p29() Bool)
(declare-fun p86() Bool)
(declare-fun p71() Bool)
(declare-fun p34() Bool)
(declare-fun p1() Bool)
(declare-fun p114() Bool)
(declare-fun p7() Bool)
(declare-fun p72() Bool)
(declare-fun p52() Bool)
(declare-fun p11() Bool)
(declare-fun p9() Bool)
(declare-fun p80() Bool)
(declare-fun p41() Bool)
(declare-fun p42() Bool)
(declare-fun p99() Bool)
(declare-fun p87() Bool)
(declare-fun p77() Bool)
(declare-fun p73() Bool)
(assert
(and (or p109 (not p10) p116) (or p104 (not p15) p97) (or (not p98) p0 p12) (or p74 (not p13) (not p27)) (or (not p55) p105 (not p49)) (or (not p95) p90 (not p25)) (or (not p112) (not p28) p88) (or p74 (not p113) (not p94)) (or p4 p102 (not p19)) (or (not p89) (not p67) p118) (or p96 (not p37) p0) (or (not p40) (not p39) (not p63)) (or (not p75) p10 p25) (or (not p113) (not p22) (not p112)) (or (not p106) p31 (not p44)) (or (not p3) (not p35) (not p14)) (or p102 (not p115) (not p119)) (or p64 p5 p58) (or (not p105) p70 (not p83)) (or p66 (not p65) p101) (or p12 (not p28) p119) (or (not p40) (not p79) p57) (or (not p33) (not p55) (not p22)) (or (not p18) p19 (not p102)) (or p116 p104 (not p48)) (or (not p56) p54 p76) (or p17 (not p74) p33) (or p48 p67 (not p81)) (or (not p62) (not p30) (not p111)) (or (not p61) p18 p26) (or (not p36) (not p100) p49) (or (not p46) (not p45) p61) (or (not p108) p63 p58) (or p105 (not p6) (not p92)) (or p64 (not p18) p81) (or (not p69) (not p63) (not p89)) (or (not p78) (not p44) p108) (or (not p106) p22 p104) (or (not p65) p56 (not p78)) (or p62 p57 p94) (or p19 p84 p115) (or p65 (not p2) p102) (or p31 (not p23) p33) (or (not p13) p3 (not p68)) (or p28 p19 p85) (or p13 (not p91) (not p107)) (or p43 p109 (not p20)) (or p20 p55 p39) (or p43 p102 p66) (or p4 p88 p56) (or (not p17) p15 p61) (or (not p8) (not p115) (not p4)) (or (not p65) p81 (not p19)) (or (not p21) p60 p45) (or p70 (not p50) p119) (or (not p59) p106 p28) (or p53 p3 p104) (or p12 (not p102) (not p15)) (or (not p98) (not p47) p8) (or p22 p48 p92) (or (not p8) (not p104) (not p63)) (or (not p91) p53 (not p100)) (or p56 p117 (not p68)) (or p33 p0 p112) (or (not p38) (not p21) p25) (or p26 p63 (not p55)) (or p17 (not p113) p32) (or (not p105) (not p68) (not p3)) (or (not p40) (not p27) (not p110)) (or p67 p78 (not p51)) (or p24 p88 (not p58)) (or p78 (not p17) (not p61)) (or p12 p50 (not p58)) (or p116 p23 (not p8)) (or (not p16) p62 (not p92)) (or (not p111) p60 p25) (or p62 (not p94) (not p64)) (or p10 p103 (not p93)) (or (not p97) (not p95) p113) (or p3 p92 p56) (or (not p25) p30 (not p82)) (or p38 p19 p66) (or p81 p3 (not p0)) (or p78 (not p69) (not p29)) (or p70 (not p64) (not p107)) (or (not p86) (not p115) p92) (or p14 p71 (not p29)) (or (not p53) p111 (not p15)) (or (not p110) (not p34) (not p12)) (or p106 (not p50) p75) (or (not p25) (not p46) p78) (or (not p62) p1 (not p22)) (or p98 p35 (not p51)) (or p105 (not p29) (not p106)) (or p110 (not p103) p114) (or p48 p100 (not p83)) (or (not p79) (not p96) p18) (or p8 (not p7) (not p84)) (or (not p79) (not p89) (not p101)) (or p12 (not p32) p47) (or (not p96) p25 p100) (or p86 (not p62) p48) (or (not p72) (not p33) (not p56)) (or p5 p117 p55) (or p52 p11 p19) (or p103 (not p37) p112) (or p93 (not p61) (not p61)) (or p106 (not p63) p1) (or p119 (not p40) (not p13)) (or p19 p38 p35) (or (not p47) (not p105) (not p79)) (or (not p69) (not p25) (not p111)) (or p76 (not p50) p109) (or (not p98) (not p34) p5) (or p13 (not p22) p39) (or (not p8) p69 (not p78)) (or p56 p46 p93) (or p46 p23 (not p16)) (or (not p78) (not p67) p83) (or p12 p13 (not p90)) (or p43 p12 p9) (or (not p5) (not p54) (not p114)) (or (not p115) (not p100) p96) (or p22 p113 (not p80)) (or (not p40) (not p51) (not p80)) (or (not p41) p7 p51) (or p51 (not p71) p39) (or p80 p37 p33) (or p12 p91 (not p12)) (or p86 p18 (not p8)) (or p80 (not p78) (not p102)) (or (not p112) p85 (not p31)) (or p35 (not p4) (not p89)) (or (not p55) p27 p72) (or p54 (not p111) (not p108)) (or (not p40) p81 (not p62)) (or (not p86) (not p12) (not p3)) (or p53 (not p1) p58) (or p59 p72 (not p15)) (or (not p42) (not p55) p25) (or (not p113) p85 (not p80)) (or p61 p45 (not p81)) (or (not p18) (not p22) p74) (or (not p30) (not p1) p14) (or (not p9) (not p99) p37) (or p13 (not p115) (not p118)) (or (not p17) (not p21) p71) (or p58 p44 (not p81)) (or (not p19) (not p117) p44) (or p75 p71 p104) (or (not p17) p2 p92) (or (not p46) p57 (not p89)) (or p56 p66 (not p99)) (or p81 (not p5) (not p98)) (or p101 (not p92) (not p50)) (or (not p90) p60 p97) (or p85 (not p117) (not p97)) (or (not p9) (not p93) (not p56)) (or p98 (not p57) p31) (or (not p37) p103 p101) (or (not p104) p66 (not p82)) (or p112 p51 (not p39)) (or (not p86) p5 p100) (or p115 (not p18) (not p24)) (or p13 p87 p18) (or p18 (not p8) p97) (or (not p110) (not p46) (not p43)) (or p27 (not p32) p111) (or (not p94) p16 (not p30)) (or (not p74) (not p111) p66) (or (not p71) (not p27) p119) (or (not p11) p25 (not p61)) (or p105 p9 p70) (or p109 p78 (not p18)) (or (not p37) (not p36) (not p110)) (or (not p2) p56 (not p19)) (or (not p3) p8 (not p62)) (or p82 (not p0) (not p15)) (or p41 (not p114) p76) (or (not p113) p64 (not p42)) (or (not p3) (not p98) p117) (or (not p47) p116 p101) (or (not p68) (not p64) (not p102)) (or (not p45) (not p32) (not p96)) (or p90 (not p35) (not p22)) (or (not p43) (not p28) p101) (or (not p97) (not p66) p23) (or (not p36) p47 p51) (or p111 p27 (not p2)) (or (not p3) p61 p119) (or (not p8) (not p49) p71) (or p50 p13 p21) (or (not p71) p107 p31) (or p99 (not p119) (not p77)) (or p111 (not p105) (not p21)) (or p48 p0 (not p85)) (or (not p25) (not p6) (not p50)) (or (not p99) (not p32) p86) (or p91 p50 p71) (or p105 p56 (not p103)) (or p40 p107 (not p23)) (or p59 (not p59) p116) (or p99 p35 p88) (or (not p74) (not p72) (not p40)) (or (not p106) p41 p34) (or p61 p95 p106) (or (not p53) p109 p64) (or p12 p113 (not p89)) (or (not p31) p3 (not p46)) (or p29 p13 p109) (or (not p89) p76 (not p33)) (or p47 p20 (not p30)) (or p35 p66 p11) (or p47 (not p11) (not p117)) (or (not p82) p8 p20) (or (not p62) (not p76) p43) (or (not p60) (not p1) (not p13)) (or p30 p47 (not p104)) (or p60 p26 (not p91)) (or p17 p85 (not p27)) (or p64 (not p42) p40) (or (not p92) (not p42) p92) (or p113 p99 (not p25)) (or (not p20) (not p61) p60) (or p14 (not p111) p32) (or (not p74) p97 (not p30)) (or p37 (not p46) p13) (or p91 (not p5) p11) (or (not p101) (not p13) (not p12)) (or (not p94) p9 p52) (or (not p81) (not p54) (not p93)) (or (not p71) p52 p73) (or (not p113) p82 p3) (or (not p52) p48 p59) (or (not p77) p67 p103) (or (not p9) (not p24) (not p112)) (or (not p90) p103 p96) (or (not p18) (not p11) p38) (or (not p85) p54 (not p26)) (or (not p17) p74 (not p116)) (or p47 p0 p104) (or p67 (not p0) p60) (or p29 p116 p18) (or p106 (not p13) (not p81)) (or p89 p111 (not p90)) (or p103 p113 p67) (or p48 p23 p106) (or p108 (not p34) (not p46)) (or (not p27) p0 p37) (or p22 (not p26) p31) (or p27 p88 (not p27)) (or (not p54) p35 p28) (or (not p29) p6 (not p29)) (or p24 (not p0) p17) (or p112 p66 (not p114)) (or p103 p81 (not p7)) (or (not p15) p12 (not p41)) (or p98 (not p71) p102) (or (not p14) (not p65) (not p96)) (or (not p57) (not p5) p86) (or p27 (not p0) (not p79)) (or (not p78) p54 p6) (or p37 p15 p73) (or (not p25) (not p31) p105) (or (not p20) p81 (not p111)) (or (not p63) p90 (not p85)) (or (not p39) p79 p15) (or (not p78) (not p102) (not p14)) (or (not p107) (not p80) (not p36)) (or (not p0) p70 p9) (or p74 p19 (not p49)) (or (not p60) (not p21) (not p89)) (or (not p33) (not p36) (not p79)) (or (not p0) p99 p47) (or p1 (not p32) (not p68)) (or (not p101) (not p38) (not p39)) (or (not p31) (not p103) p6) (or (not p76) (not p48) p60) (or (not p1) (not p41) (not p52)) (or (not p44) p102 (not p6)) (or p41 p93 p66) (or p48 (not p56) (not p6)) (or (not p96) p81 (not p59)) (or (not p110) p108 (not p51)) (or p17 p36 (not p56)) (or (not p99) (not p59) (not p29)) (or (not p74) (not p51) (not p102)) (or (not p38) (not p103) p32) (or p64 (not p110) p85) (or (not p22) (not p114) (not p25)) (or p117 (not p36) (not p64)) (or (not p84) (not p34) (not p33)) (or p48 (not p115) p20) (or p49 (not p92) (not p80)) (or p91 (not p89) (not p104)) (or p90 (not p119) p107) (or (not p93) (not p115) p29) (or p106 (not p31) (not p36)) (or p111 (not p59) p101) (or p108 (not p101) p113) (or (not p10) (not p73) p51) (or (not p59) p52 p71) (or p39 p87 p25) (or p42 (not p63) p10) (or (not p80) (not p26) (not p56)) (or (not p39) (not p99) (not p100)) (or p73 p66 (not p35)) (or p60 (not p51) p35) (or p114 p116 p84) (or (not p47) (not p38) (not p11)) (or p2 (not p114) (not p53)) (or (not p74) (not p4) (not p93)) (or (not p76) p83 (not p104)) (or (not p7) (not p109) (not p89)) (or (not p57) (not p8) (not p110)) (or p37 (not p52) (not p4)) (or (not p42) (not p30) p50) (or p49 (not p39) p9) (or (not p90) (not p18) p41) (or p70 p57 p13) (or (not p85) p104 (not p82)) (or p115 (not p17) (not p114)) (or (not p21) p29 p4) (or (not p2) (not p27) p26) (or (not p56) p114 (not p65)) (or (not p25) (not p93) (not p31)) (or p86 p0 (not p28)) (or p95 (not p14) (not p27)) (or p81 p45 p1) (or (not p105) p1 (not p77)) (or (not p95) (not p84) (not p60)) (or (not p111) p66 p51) (or (not p91) (not p76) (not p104)) (or (not p78) p41 p77) (or p89 p63 p46) (or (not p63) p37 (not p61)) (or (not p17) (not p31) p70) (or (not p108) p11 p54) (or p57 (not p113) p114) (or p27 p41 p90) (or p53 (not p44) (not p7)) (or p71 (not p6) (not p53)) (or p15 (not p94) p75) (or (not p1) (not p55) (not p1)) (or (not p63) (not p79) (not p83)) (or (not p32) (not p15) p19) (or p49 (not p66) (not p0)) (or p111 (not p32) (not p83)) (or (not p42) (not p82) (not p81)) (or p101 p88 p43) (or p60 (not p67) p72) (or p19 p52 (not p96)) (or p8 (not p111) (not p74)) (or (not p20) p6 (not p79)) (or p60 (not p96) (not p110)) (or p77 p9 (not p26)) (or p110 p33 p113) (or p115 p103 p78) (or p99 p119 (not p35)) (or (not p36) p49 p37) (or (not p115) p114 (not p57)) (or p39 (not p93) p92) (or p13 (not p69) (not p49)) (or p107 p56 (not p97)) (or (not p106) (not p55) (not p63)) (or (not p71) p90 (not p6)) (or p84 (not p95) p93) (or (not p62) p41 p61) (or p7 p23 (not p111)) (or (not p44) (not p72) p32) (or (not p53) (not p6) (not p78)) (or p38 p4 (not p32)) (or p54 p65 p3) (or p87 p4 (not p109)) (or (not p18) p40 (not p33)) (or p102 p85 (not p45)) (or (not p111) p77 p6) (or (not p62) p40 p42) (or (not p43) p2 p119) (or (not p32) p27 (not p11)) (or p6 p106 (not p15)) (or p117 p35 p23) (or p22 (not p1) (not p69)) (or (not p0) p84 (not p63)) (or (not p111) p110 p2) (or (not p21) p94 p107) (or (not p13) p79 p42) (or p19 p58 (not p16)) (or (not p79) (not p84) p1) (or p84 (not p69) p98) (or (not p85) p76 p55) (or p4 p85 (not p30)) (or p55 p55 p87) (or p0 p78 p53) (or p19 p90 p96) (or (not p20) p20 (not p86)) (or p90 (not p36) p77) (or p105 p74 (not p39)) (or p18 (not p99) (not p56)) (or p29 p8 (not p94)) (or (not p46) p61 (not p37)) (or p58 (not p30) (not p88)) (or p42 (not p103) (not p42)) (or p42 p54 (not p96)) (or p47 p65 p101) (or p75 (not p109) p111) (or (not p106) p85 (not p115)) (or p5 p89 p93) (or (not p54) p32 (not p54)) (or p78 (not p36) p8) (or p85 p91 (not p108)) (or (not p13) p114 (not p0)) (or (not p25) (not p100) (not p99)) (or (not p35) p59 (not p24)) (or (not p81) p65 p77) (or p58 (not p93) p13) (or (not p45) p10 (not p5)) (or p115 (not p116) p73) (or p60 p16 (not p53)) (or p16 p34 (not p78)) (or (not p15) (not p103) (not p115)) (or (not p110) (not p58) p6) (or p57 (not p97) (not p5)) (or p28 p36 (not p0)) (or p17 (not p23) p88) (or p81 (not p9) (not p92)) (or (not p103) (not p56) p76) (or (not p23) p105 p71) (or p96 p104 (not p69)) (or p7 (not p60) p35) (or (not p98) p55 p116) (or p101 p14 p12) (or p34 p6 p117) (or (not p50) (not p104) p0) (or p34 (not p79) p99) (or p2 (not p29) (not p47)) (or (not p45) (not p38) p87) (or (not p70) (not p99) (not p48)) (or (not p49) p1 p37) (or p1 (not p14) p101) (or (not p18) (not p53) (not p87)) (or (not p115) (not p57) p11) (or p33 (not p36) p45) (or p56 (not p16) (not p24)) (or p113 (not p18) (not p54)) (or p45 (not p68) (not p74)) (or p60 p47 (not p85)) (or (not p36) (not p51) (not p22)) (or (not p71) p15 (not p9)) (or (not p25) (not p101) p102) (or (not p12) p39 (not p90)) (or (not p14) p107 p32) (or p58 (not p22) p37) (or p46 p92 (not p63)) (or p106 p51 (not p58)) (or (not p40) (not p19) (not p81)) (or p14 (not p103) p24) (or (not p53) p66 p109) (or (not p4) p106 (not p97)) (or p39 (not p99) (not p64)) (or (not p104) (not p72) (not p115)) (or p62 (not p78) p70) (or (not p102) (not p86) (not p38)) (or p101 p14 p51) (or (not p56) p37 (not p11)) (or (not p65) (not p115) (not p21)) (or p10 (not p58) p4) (or p97 p29 (not p16)) (or p99 (not p86) p8) (or p6 (not p68) (not p43)) (or p51 (not p104) (not p91)) (or (not p39) p58 p82) (or (not p7) p39 (not p13)) (or (not p1) (not p57) (not p37)) (or (not p69) p86 p70) (or (not p31) (not p42) p5) (or (not p56) (not p34) (not p54)) (or (not p69) p106 (not p18)) (or (not p24) (not p119) p55) (or p84 (not p58) (not p15)) (or p48 (not p64) (not p0)) (or (not p83) p5 p102) (or p107 p62 (not p54)) (or p90 p68 p92) (or p100 p53 (not p34)) (or p8 (not p31) (not p55)) (or p85 (not p45) (not p0)) (or p51 p61 (not p52)) (or (not p113) (not p43) (not p98)) (or (not p112) (not p44) (not p36)) (or (not p109) (not p36) (not p108)) (or p15 (not p39) (not p84)) (or p118 (not p103) p59) (or p43 p75 p21) (or (not p107) (not p22) (not p24)) (or (not p31) p54 (not p87)) (or (not p11) p38 (not p75)) (or p18 (not p90) (not p19)) (or p71 p21 (not p114)) (or p13 p25 p80) (or (not p55) p92 (not p89)) (or (not p61) (not p107) p93) (or (not p14) p118 p81) (or p74 p39 p118) (or (not p71) p27 p75) (or (not p77) p64 (not p107)) (or p52 (not p63) (not p59)) (or (not p29) p59 (not p116)) (or (not p19) (not p86) (not p14)) (or (not p33) (not p97) (not p35)) (or (not p100) (not p101) (not p1)) (or p4 p29 p10) (or p92 (not p49) p39) (or p46 p16 p117) (or (not p108) (not p43) (not p21)) (or (not p17) (not p110) p4) (or (not p40) (not p89) (not p23)) (or p88 p117 (not p37)) (or (not p93) (not p61) p77) (or p34 (not p80) p53) (or (not p110) p102 (not p92)) (or p55 (not p12) (not p93)) (or p112 (not p115) p65) (or (not p21) (not p80) p80) (or (not p37) (not p48) p90) (or p40 p56 p43) (or p28 (not p112) p88) (or p32 (not p97) p93) (or p47 p79 (not p64)) (or (not p18) p19 p38) (or (not p75) p51 p48) (or p114 (not p69) p115) (or p27 (not p44) (not p24)) (or p49 (not p92) p17) (or p99 p94 (not p107)) (or p104 (not p106) (not p95)) (or (not p40) (not p20) (not p103)) (or (not p74) (not p28) (not p50)) (or (not p66) (not p90) p102) (or p86 (not p111) (not p72)) (or p30 p84 p90) (or p83 p101 p105) (or (not p90) (not p60) (not p21)) (or (not p104) p58 (not p101)) (or (not p103) (not p31) p98) (or (not p38) p81 p31) (or p83 p25 (not p74)) (or p5 p47 (not p108)) (or p115 p60 (not p103)) (or (not p25) (not p68) (not p82)) (or p87 p29 (not p108)) (or (not p73) p39 (not p73)) (or p66 (not p116) p16) (or p38 (not p61) p75) (or (not p16) p1 p115) (or p37 p82 (not p72)) (or p42 p57 (not p107)) (or (not p50) (not p23) (not p69)) (or (not p21) p83 p88) (or (not p115) (not p90) (not p16)) (or p80 p25 (not p112)) (or (not p84) p56 (not p26)) (or (not p27) (not p48) p107) (or p10 p70 p53) (or (not p76) (not p25) (not p95)) (or (not p28) (not p35) (not p11)) (or p96 p93 p45) (or p43 (not p63) p64) (or (not p61) p70 (not p67)) (or p116 (not p55) p60) (or p2 (not p36) (not p78)) (or (not p54) (not p51) (not p6)) (or p29 (not p38) (not p15)) (or (not p64) (not p83) p89) (or p22 (not p57) (not p89)) (or (not p117) p107 p75) (or (not p14) p5 p45) (or (not p110) p45 (not p56)) (or (not p60) p4 (not p50)) (or p68 p99 p66) (or (not p65) (not p3) (not p102)) (or p113 (not p6) (not p21)) (or p70 p74 p48) (or p19 p29 p106) (or p15 p58 p43) (or p7 p117 (not p36)) (or p33 p12 (not p30)) (or (not p105) p106 p55) (or p57 (not p52) (not p66)) (or p117 p94 (not p94)) (or (not p75) (not p18) p22) (or (not p29) p39 p68) (or p67 p67 (not p45)) (or p36 p29 (not p19)) (or (not p60) (not p1) p38) (or p2 (not p119) p73) (or (not p22) (not p73) p109) (or p59 (not p60) p64) (or p9 p23 (not p60)))
)
(check-sat)
(get-model)
